Set parameter TokenServer to value "opt-license.discovery.wisc.edu"
Set parameter TimeLimit to value 600
Gurobi Optimizer version 9.5.1 build v9.5.1rc2 (linux64)
Thread count: 40 physical cores, 80 logical processors, using up to 32 threads
Optimize a model with 124921 rows, 216000 columns and 685428 nonzeros
Model fingerprint: 0xd47bb9da
Variable types: 214400 continuous, 1600 integer (1600 binary)
Coefficient statistics:
  Matrix range     [1e+00, 1e+03]
  Objective range  [1e+00, 8e+00]
  Bounds range     [1e+00, 1e+00]
  RHS range        [1e+00, 4e+00]
Presolve removed 7528 rows and 22442 columns
Presolve time: 4.47s
Presolved: 117393 rows, 193558 columns, 645876 nonzeros
Variable types: 191958 continuous, 1600 integer (1600 binary)

Deterministic concurrent LP optimizer: primal and dual simplex
Showing first log only...


Root simplex log...

Iteration    Objective       Primal Inf.    Dual Inf.      Time
       0    1.0934041e+02   2.091875e+02   1.023270e+09      7s
Concurrent spin time: 0.02s

Solved with dual simplex

Root relaxation: objective 5.062090e+01, 1480 iterations, 1.72 seconds (0.87 work units)

    Nodes    |    Current Node    |     Objective Bounds      |     Work
 Expl Unexpl |  Obj  Depth IntInf | Incumbent    BestBd   Gap | It/Node Time

     0     0   50.62090    0   68          -   50.62090      -     -   10s
     0     0   51.00019    0   49          -   51.00019      -     -   15s
     0     0   51.15514    0  103          -   51.15514      -     -   16s
     0     0   51.31943    0  178          -   51.31943      -     -   20s
     0     0   51.35166    0  162          -   51.35166      -     -   21s
     0     0   51.37312    0  172          -   51.37312      -     -   23s
H    0     0                      52.3869706   51.37312  1.94%     -   24s
     0     0   51.38084    0  171   52.38697   51.38084  1.92%     -   25s
     0     0   51.38740    0  168   52.38697   51.38740  1.91%     -   27s
     0     0   51.38740    0   59   52.38697   51.38740  1.91%     -   32s
H    0     0                      51.7273939   51.38740  0.66%     -   34s

Cutting planes:
  Gomory: 7
  MIR: 3
  StrongCG: 1
  GUB cover: 4
  RLT: 1

Explored 1 nodes (3745 simplex iterations) in 34.11 seconds (12.62 work units)
Thread count was 32 (of 80 available processors)

Solution count 2: 51.7274 52.387 

Optimal solution found (tolerance 1.00e-04)
Best objective 5.172739385852e+01, best bound 5.172739385852e+01, gap 0.0000%
